param n := 38;
param c := 100;
param w := 
1 95
2 91
3 88
4 86
5 80
6 80
7 76
8 75
9 75
10 74
11 71
12 65
13 62
14 61
15 60
16 58
17 57
18 55
19 48
20 47
21 42
22 41
23 37
24 35
25 34
26 31
27 30
28 29
29 23
30 22
31 19
32 16
33 16
34 5
35 2
36 2
37 1
38 1
;